NAME : local_15
TYPE : ATSP
DIMENSION : 7
EDGE_WEIGHT_TYPE : EXPLICIT
EDGE_WEIGHT_FORMAT : FULL_MATRIX
EDGE_WEIGHT_SECTION
0 386 928 99 196 421 203 
0 0 650 364 267 803 508 
0 650 0 944 803 10000000 10000000 
0 364 903 0 237 470 153 
0 267 803 237 0 566 368 
0 803 10000000 470 566 0 387 
0 508 10000000 153 368 387 0 
EOF